nK = 858;
nT = 4;
nI = 7;
L = 29;
TT = 244;
np = 1;
nc = 3;
b = [59, 40, 57, 48, 62, 37, 42];
d = [126, 106, 100, 137, 140, 65, 75];
m = [1.6, 1.5, 2.2, 1.1, 2.4, 1.6, 1.2];
pt = [0.35, 0.35, 0.35, 0.27];
st = [16.45, 20.3, 14, 12.42];
arc = {<1, 0, 1, 1, 0, 0, 0, [1, 1, 1, 1]>, <2, 1, 2, 1, 0, 0, 0, [1, 1, 1, 1]>, <3, 2, 3, 1, 0, 0, 0, [1, 1, 1, 1]>, <4, 3, 4, 1, 0, 0, 0, [1, 1, 1, 1]>, <5, 4, 5, 1, 0, 0, 0, [1, 1, 1, 1]>, <6, 5, 6, 1, 0, 0, 0, [1, 1, 1, 1]>, <7, 6, 7, 1, 0, 0, 0, [1, 1, 1, 1]>, <8, 7, 8, 1, 0, 0, 0, [1, 1, 1, 1]>, <9, 8, 9, 1, 0, 0, 0, [1, 1, 1, 1]>, <10, 9, 10, 1, 0, 0, 0, [1, 1, 1, 1]>, <11, 10, 11, 1, 0, 0, 0, [1, 1, 1, 1]>, <12, 11, 12, 1, 0, 0, 0, [1, 1, 1, 1]>, <13, 12, 13, 1, 0, 0, 0, [1, 1, 1, 1]>, <14, 13, 14, 1, 0, 0, 0, [1, 1, 1, 1]>, <15, 14, 15, 1, 0, 0, 0, [1, 1, 1, 1]>, <16, 15, 16, 1, 0, 0, 0, [1, 1, 1, 1]>, <17, 16, 17, 1, 0, 0, 0, [1, 1, 1, 1]>, <18, 17, 18, 1, 0, 0, 0, [1, 1, 1, 1]>, <19, 18, 19, 1, 0, 0, 0, [1, 1, 1, 1]>, <20, 19, 20, 1, 0, 0, 0, [1, 1, 1, 1]>, <21, 20, 21, 1, 0, 0, 0, [1, 1, 1, 1]>, <22, 21, 22, 1, 0, 0, 0, [1, 1, 1, 1]>, <23, 22, 23, 1, 0, 0, 0, [1, 1, 1, 1]>, <24, 23, 24, 1, 0, 0, 0, [1, 1, 1, 1]>, <25, 24, 25, 1, 0, 0, 0, [1, 1, 1, 1]>, <26, 25, 26, 1, 0, 0, 0, [1, 1, 1, 1]>, <27, 26, 27, 1, 0, 0, 0, [1, 1, 1, 1]>, <28, 27, 28, 1, 0, 0, 0, [1, 1, 1, 1]>, <29, 28, 29, 1, 0, 0, 0, [1, 1, 1, 1]>, <30, 0, 18, 18, 1, 1, 0, [1, 0, 0, 1]>, <31, 1, 19, 18, 1, 1, 0, [1, 0, 0, 1]>, <32, 2, 20, 18, 1, 1, 0, [1, 0, 0, 1]>, <33, 3, 21, 18, 1, 1, 0, [1, 0, 0, 1]>, <34, 4, 22, 18, 1, 1, 0, [1, 0, 0, 1]>, <35, 5, 23, 18, 1, 1, 0, [1, 0, 0, 1]>, <36, 6, 24, 18, 1, 1, 0, [1, 0, 0, 1]>, <37, 7, 25, 18, 1, 1, 0, [1, 0, 0, 1]>, <38, 8, 26, 18, 1, 1, 0, [1, 0, 0, 1]>, <39, 9, 27, 18, 1, 1, 0, [1, 0, 0, 1]>, <40, 10, 28, 18, 1, 1, 0, [1, 0, 0, 1]>, <41, 11, 29, 18, 1, 1, 0, [1, 0, 0, 1]>, <42, 0, 13, 13, 2, 0, 1, [1, 0, 0, 1]>, <43, 1, 14, 13, 2, 0, 1, [1, 0, 0, 1]>, <44, 2, 15, 13, 2, 0, 1, [1, 0, 0, 1]>, <45, 3, 16, 13, 2, 0, 1, [1, 0, 0, 1]>, <46, 4, 17, 13, 2, 0, 1, [1, 0, 0, 1]>, <47, 5, 18, 13, 2, 0, 1, [1, 0, 0, 1]>, <48, 7, 20, 13, 2, 0, 1, [1, 0, 0, 1]>, <49, 8, 21, 13, 2, 0, 1, [1, 0, 0, 1]>, <50, 9, 22, 13, 2, 0, 1, [1, 0, 0, 1]>, <51, 10, 23, 13, 2, 0, 1, [1, 0, 0, 1]>, <52, 11, 24, 13, 2, 0, 1, [1, 0, 0, 1]>, <53, 12, 25, 13, 2, 0, 1, [1, 0, 0, 1]>, <54, 13, 26, 13, 2, 0, 1, [1, 0, 0, 1]>, <55, 14, 27, 13, 2, 0, 1, [1, 0, 0, 1]>, <56, 15, 28, 13, 2, 0, 1, [1, 0, 0, 1]>, <57, 16, 29, 13, 2, 0, 1, [1, 0, 0, 1]>, <58, 0, 15, 15, 3, 0, 0, [0, 0, 1, 1]>, <59, 1, 16, 15, 3, 0, 0, [0, 0, 1, 1]>, <60, 2, 17, 15, 3, 0, 0, [0, 0, 1, 1]>, <61, 3, 18, 15, 3, 0, 0, [0, 0, 1, 1]>, <62, 4, 19, 15, 3, 0, 0, [0, 0, 1, 1]>, <63, 5, 20, 15, 3, 0, 0, [0, 0, 1, 1]>, <64, 6, 21, 15, 3, 0, 0, [0, 0, 1, 1]>, <65, 7, 22, 15, 3, 0, 0, [0, 0, 1, 1]>, <66, 8, 23, 15, 3, 0, 0, [0, 0, 1, 1]>, <67, 9, 24, 15, 3, 0, 0, [0, 0, 1, 1]>, <68, 10, 25, 15, 3, 0, 0, [0, 0, 1, 1]>, <69, 11, 26, 15, 3, 0, 0, [0, 0, 1, 1]>, <70, 12, 27, 15, 3, 0, 0, [0, 0, 1, 1]>, <71, 13, 28, 15, 3, 0, 0, [0, 0, 1, 1]>, <72, 14, 29, 15, 3, 0, 0, [0, 0, 1, 1]>, <73, 0, 17, 17, 4, 0, 1, [0, 1, 1, 0]>, <74, 1, 18, 17, 4, 0, 1, [0, 1, 1, 0]>, <75, 2, 19, 17, 4, 0, 1, [0, 1, 1, 0]>, <76, 3, 20, 17, 4, 0, 1, [0, 1, 1, 0]>, <77, 4, 21, 17, 4, 0, 1, [0, 1, 1, 0]>, <78, 5, 22, 17, 4, 0, 1, [0, 1, 1, 0]>, <79, 6, 23, 17, 4, 0, 1, [0, 1, 1, 0]>, <80, 7, 24, 17, 4, 0, 1, [0, 1, 1, 0]>, <81, 8, 25, 17, 4, 0, 1, [0, 1, 1, 0]>, <82, 9, 26, 17, 4, 0, 1, [0, 1, 1, 0]>, <83, 10, 27, 17, 4, 0, 1, [0, 1, 1, 0]>, <84, 11, 28, 17, 4, 0, 1, [0, 1, 1, 0]>, <85, 12, 29, 17, 4, 0, 1, [0, 1, 1, 0]>, <86, 0, 14, 14, 5, 0, 0, [0, 0, 1, 1]>, <87, 1, 15, 14, 5, 0, 0, [0, 0, 1, 1]>, <88, 2, 16, 14, 5, 0, 0, [0, 0, 1, 1]>, <89, 3, 17, 14, 5, 0, 0, [0, 0, 1, 1]>, <90, 4, 18, 14, 5, 0, 0, [0, 0, 1, 1]>, <91, 5, 19, 14, 5, 0, 0, [0, 0, 1, 1]>, <92, 6, 20, 14, 5, 0, 0, [0, 0, 1, 1]>, <93, 7, 21, 14, 5, 0, 0, [0, 0, 1, 1]>, <94, 8, 22, 14, 5, 0, 0, [0, 0, 1, 1]>, <95, 9, 23, 14, 5, 0, 0, [0, 0, 1, 1]>, <96, 10, 24, 14, 5, 0, 0, [0, 0, 1, 1]>, <97, 11, 25, 14, 5, 0, 0, [0, 0, 1, 1]>, <98, 12, 26, 14, 5, 0, 0, [0, 0, 1, 1]>, <99, 13, 27, 14, 5, 0, 0, [0, 0, 1, 1]>, <100, 14, 28, 14, 5, 0, 0, [0, 0, 1, 1]>, <101, 15, 29, 14, 5, 0, 0, [0, 0, 1, 1]>, <102, 0, 14, 14, 6, 0, 1, [0, 1, 1, 0]>, <103, 1, 15, 14, 6, 0, 1, [0, 1, 1, 0]>, <104, 2, 16, 14, 6, 0, 1, [0, 1, 1, 0]>, <105, 3, 17, 14, 6, 0, 1, [0, 1, 1, 0]>, <106, 4, 18, 14, 6, 0, 1, [0, 1, 1, 0]>, <107, 5, 19, 14, 6, 0, 1, [0, 1, 1, 0]>, <108, 6, 20, 14, 6, 0, 1, [0, 1, 1, 0]>, <109, 7, 21, 14, 6, 0, 1, [0, 1, 1, 0]>, <110, 8, 22, 14, 6, 0, 1, [0, 1, 1, 0]>, <111, 9, 23, 14, 6, 0, 1, [0, 1, 1, 0]>, <112, 10, 24, 14, 6, 0, 1, [0, 1, 1, 0]>, <113, 11, 25, 14, 6, 0, 1, [0, 1, 1, 0]>, <114, 12, 26, 14, 6, 0, 1, [0, 1, 1, 0]>, <115, 13, 27, 14, 6, 0, 1, [0, 1, 1, 0]>, <116, 14, 28, 14, 6, 0, 1, [0, 1, 1, 0]>, <117, 15, 29, 14, 6, 0, 1, [0, 1, 1, 0]>, <118, 0, 17, 17, 7, 0, 0, [1, 0, 0, 1]>, <119, 1, 18, 17, 7, 0, 0, [1, 0, 0, 1]>, <120, 2, 19, 17, 7, 0, 0, [1, 0, 0, 1]>, <121, 3, 20, 17, 7, 0, 0, [1, 0, 0, 1]>, <122, 4, 21, 17, 7, 0, 0, [1, 0, 0, 1]>, <123, 5, 22, 17, 7, 0, 0, [1, 0, 0, 1]>, <124, 6, 23, 17, 7, 0, 0, [1, 0, 0, 1]>, <125, 7, 24, 17, 7, 0, 0, [1, 0, 0, 1]>, <126, 8, 25, 17, 7, 0, 0, [1, 0, 0, 1]>, <127, 9, 26, 17, 7, 0, 0, [1, 0, 0, 1]>, <128, 10, 27, 17, 7, 0, 0, [1, 0, 0, 1]>, <129, 11, 28, 17, 7, 0, 0, [1, 0, 0, 1]>, <130, 12, 29, 17, 7, 0, 0, [1, 0, 0, 1]>};
